\ENCODING=ISO-8859-1
\Problem name: MOMKP_p3_n250_m3_ins1

Maximize
 obj:
Subject To
 c1:	414 x1 + 843 x2 + 109 x3 + 818 x4 + 218 x5 + 818 x6 + 701 x7 + 301 x8 + 341 x9 + 475 x10 + 387 x11 + 642 x12 + 388 x13 + 146 x14 + 77 x15 + 314 x16 + 205 x17 + 906 x18 + 825 x19 + 561 x20 + 648 x21 + 168 x22 + 730 x23 + 293 x24 + 173 x25 + 37 x26 + 837 x27 + 752 x28 + 438 x29 + 434 x30 + 477 x31 + 300 x32 + 919 x33 + 191 x34 + 211 x35 + 830 x36 + 667 x37 + 412 x38 + 18 x39 + 990 x40 + 513 x41 + 660 x42 + 986 x43 + 830 x44 + 615 x45 + 167 x46 + 291 x47 + 561 x48 + 341 x49 + 287 x50 + 117 x51 + 751 x52 + 781 x53 + 437 x54 + 605 x55 + 110 x56 + 489 x57 + 668 x58 + 10 x59 + 874 x60 + 590 x61 + 510 x62 + 953 x63 + 856 x64 + 624 x65 + 303 x66 + 454 x67 + 39 x68 + 966 x69 + 959 x70 + 804 x71 + 305 x72 + 800 x73 + 379 x74 + 271 x75 + 705 x76 + 318 x77 + 470 x78 + 375 x79 + 892 x80 + 226 x81 + 116 x82 + 904 x83 + 557 x84 + 144 x85 + 775 x86 + 152 x87 + 572 x88 + 805 x89 + 582 x90 + 873 x91 + 535 x92 + 518 x93 + 370 x94 + 816 x95 + 884 x96 + 627 x97 + 619 x98 + 940 x99 + 253 x100 + 740 x101 + 939 x102 + 883 x103 + 501 x104 + 626 x105 + 89 x106 + 529 x107 + 58 x108 + 849 x109 + 32 x110 + 203 x111 + 491 x112 + 36 x113 + 825 x114 + 387 x115 + 876 x116 + 706 x117 + 311 x118 + 180 x119 + 984 x120 + 240 x121 + 841 x122 + 657 x123 + 926 x124 + 695 x125 + 253 x126 + 1 x127 + 231 x128 + 415 x129 + 27 x130 + 126 x131 + 223 x132 + 228 x133 + 896 x134 + 814 x135 + 394 x136 + 576 x137 + 460 x138 + 170 x139 + 89 x140 + 569 x141 + 358 x142 + 309 x143 + 29 x144 + 876 x145 + 294 x146 + 350 x147 + 548 x148 + 442 x149 + 235 x150 + 466 x151 + 369 x152 + 842 x153 + 191 x154 + 947 x155 + 184 x156 + 904 x157 + 999 x158 + 718 x159 + 930 x160 + 708 x161 + 399 x162 + 660 x163 + 342 x164 + 910 x165 + 974 x166 + 127 x167 + 753 x168 + 161 x169 + 614 x170 + 256 x171 + 872 x172 + 685 x173 + 318 x174 + 574 x175 + 507 x176 + 9 x177 + 619 x178 + 697 x179 + 516 x180 + 640 x181 + 877 x182 + 823 x183 + 312 x184 + 356 x185 + 894 x186 + 983 x187 + 621 x188 + 9 x189 + 512 x190 + 909 x191 + 109 x192 + 83 x193 + 55 x194 + 470 x195 + 409 x196 + 650 x197 + 613 x198 + 852 x199 + 442 x200 + 589 x201 + 421 x202 + 668 x203 + 652 x204 + 181 x205 + 386 x206 + 5 x207 + 877 x208 + 932 x209 + 577 x210 + 452 x211 + 668 x212 + 901 x213 + 859 x214 + 270 x215 + 653 x216 + 453 x217 + 896 x218 + 589 x219 + 652 x220 + 114 x221 + 297 x222 + 255 x223 + 151 x224 + 651 x225 + 532 x226 + 907 x227 + 329 x228 + 321 x229 + 621 x230 + 526 x231 + 277 x232 + 997 x233 + 435 x234 + 173 x235 + 16 x236 + 122 x237 + 865 x238 + 956 x239 + 954 x240 + 763 x241 + 462 x242 + 758 x243 + 229 x244 + 904 x245 + 407 x246 + 326 x247 + 487 x248 + 197 x249 + 123 x250 <= 64085.500000000000000
 c2:	477 x1 + 333 x2 + 708 x3 + 688 x4 + 940 x5 + 697 x6 + 845 x7 + 580 x8 + 909 x9 + 718 x10 + 338 x11 + 406 x12 + 421 x13 + 168 x14 + 680 x15 + 422 x16 + 661 x17 + 793 x18 + 579 x19 + 354 x20 + 441 x21 + 970 x22 + 320 x23 + 251 x24 + 112 x25 + 135 x26 + 569 x27 + 808 x28 + 14 x29 + 470 x30 + 117 x31 + 417 x32 + 710 x33 + 433 x34 + 286 x35 + 854 x36 + 652 x37 + 178 x38 + 327 x39 + 401 x40 + 66 x41 + 295 x42 + 198 x43 + 441 x44 + 545 x45 + 750 x46 + 862 x47 + 832 x48 + 138 x49 + 386 x50 + 472 x51 + 591 x52 + 285 x53 + 790 x54 + 347 x55 + 601 x56 + 666 x57 + 425 x58 + 201 x59 + 486 x60 + 95 x61 + 284 x62 + 436 x63 + 905 x64 + 242 x65 + 56 x66 + 657 x67 + 563 x68 + 510 x69 + 51 x70 + 459 x71 + 177 x72 + 787 x73 + 188 x74 + 939 x75 + 260 x76 + 409 x77 + 213 x78 + 463 x79 + 632 x80 + 733 x81 + 369 x82 + 33 x83 + 607 x84 + 744 x85 + 230 x86 + 50 x87 + 454 x88 + 156 x89 + 316 x90 + 343 x91 + 392 x92 + 65 x93 + 326 x94 + 2 x95 + 90 x96 + 839 x97 + 481 x98 + 171 x99 + 648 x100 + 212 x101 + 27 x102 + 761 x103 + 6 x104 + 136 x105 + 934 x106 + 147 x107 + 536 x108 + 263 x109 + 469 x110 + 100 x111 + 470 x112 + 158 x113 + 726 x114 + 503 x115 + 570 x116 + 114 x117 + 129 x118 + 263 x119 + 132 x120 + 438 x121 + 432 x122 + 387 x123 + 848 x124 + 924 x125 + 559 x126 + 664 x127 + 230 x128 + 462 x129 + 629 x130 + 262 x131 + 539 x132 + 884 x133 + 611 x134 + 679 x135 + 502 x136 + 528 x137 + 709 x138 + 254 x139 + 238 x140 + 321 x141 + 527 x142 + 781 x143 + 210 x144 + 549 x145 + 315 x146 + 969 x147 + 176 x148 + 891 x149 + 656 x150 + 282 x151 + 706 x152 + 487 x153 + 732 x154 + 501 x155 + 773 x156 + 639 x157 + 501 x158 + 124 x159 + 332 x160 + 886 x161 + 60 x162 + 138 x163 + 502 x164 + 927 x165 + 563 x166 + 823 x167 + 195 x168 + 269 x169 + 96 x170 + 698 x171 + 700 x172 + 840 x173 + 347 x174 + 976 x175 + 395 x176 + 858 x177 + 165 x178 + 296 x179 + 489 x180 + 610 x181 + 930 x182 + 97 x183 + 231 x184 + 401 x185 + 888 x186 + 166 x187 + 383 x188 + 219 x189 + 624 x190 + 89 x191 + 780 x192 + 9 x193 + 508 x194 + 853 x195 + 167 x196 + 709 x197 + 666 x198 + 264 x199 + 132 x200 + 245 x201 + 320 x202 + 233 x203 + 556 x204 + 43 x205 + 216 x206 + 551 x207 + 92 x208 + 692 x209 + 950 x210 + 427 x211 + 405 x212 + 8 x213 + 168 x214 + 326 x215 + 445 x216 + 394 x217 + 213 x218 + 173 x219 + 263 x220 + 105 x221 + 961 x222 + 884 x223 + 478 x224 + 845 x225 + 584 x226 + 473 x227 + 928 x228 + 869 x229 + 265 x230 + 3 x231 + 737 x232 + 233 x233 + 245 x234 + 691 x235 + 572 x236 + 124 x237 + 679 x238 + 833 x239 + 274 x240 + 244 x241 + 214 x242 + 850 x243 + 420 x244 + 93 x245 + 537 x246 + 48 x247 + 531 x248 + 803 x249 + 891 x250 <= 56962.000000000000000
 c3:	859 x1 + 59 x2 + 775 x3 + 568 x4 + 535 x5 + 778 x6 + 67 x7 + 70 x8 + 142 x9 + 79 x10 + 249 x11 + 191 x12 + 199 x13 + 489 x14 + 361 x15 + 910 x16 + 678 x17 + 46 x18 + 313 x19 + 303 x20 + 310 x21 + 670 x22 + 595 x23 + 213 x24 + 829 x25 + 326 x26 + 73 x27 + 302 x28 + 808 x29 + 657 x30 + 548 x31 + 281 x32 + 638 x33 + 788 x34 + 909 x35 + 292 x36 + 761 x37 + 481 x38 + 163 x39 + 855 x40 + 546 x41 + 750 x42 + 495 x43 + 301 x44 + 940 x45 + 246 x46 + 644 x47 + 227 x48 + 884 x49 + 177 x50 + 44 x51 + 913 x52 + 399 x53 + 152 x54 + 174 x55 + 770 x56 + 245 x57 + 52 x58 + 964 x59 + 679 x60 + 5 x61 + 207 x62 + 972 x63 + 616 x64 + 705 x65 + 994 x66 + 229 x67 + 701 x68 + 210 x69 + 369 x70 + 509 x71 + 770 x72 + 455 x73 + 596 x74 + 920 x75 + 474 x76 + 11 x77 + 383 x78 + 220 x79 + 749 x80 + 772 x81 + 925 x82 + 19 x83 + 125 x84 + 979 x85 + 880 x86 + 304 x87 + 421 x88 + 217 x89 + 820 x90 + 213 x91 + 443 x92 + 271 x93 + 781 x94 + 5 x95 + 536 x96 + 329 x97 + 894 x98 + 421 x99 + 693 x100 + 923 x101 + 675 x102 + 601 x103 + 520 x104 + 876 x105 + 945 x106 + 876 x107 + 615 x108 + 122 x109 + 956 x110 + 39 x111 + 204 x112 + 887 x113 + 386 x114 + 910 x115 + 810 x116 + 555 x117 + 695 x118 + 888 x119 + 575 x120 + 713 x121 + 455 x122 + 310 x123 + 163 x124 + 398 x125 + 891 x126 + 925 x127 + 88 x128 + 792 x129 + 694 x130 + 911 x131 + 649 x132 + 939 x133 + 80 x134 + 54 x135 + 984 x136 + 202 x137 + 117 x138 + 451 x139 + 187 x140 + 915 x141 + 238 x142 + 246 x143 + 727 x144 + 548 x145 + 256 x146 + 663 x147 + 400 x148 + 861 x149 + 883 x150 + 253 x151 + 280 x152 + 478 x153 + 614 x154 + 173 x155 + 662 x156 + 875 x157 + 801 x158 + 669 x159 + 960 x160 + 221 x161 + 740 x162 + 857 x163 + 748 x164 + 154 x165 + 246 x166 + 69 x167 + 379 x168 + 832 x169 + 104 x170 + 236 x171 + 143 x172 + 190 x173 + 483 x174 + 801 x175 + 327 x176 + 691 x177 + 759 x178 + 420 x179 + 817 x180 + 27 x181 + 949 x182 + 776 x183 + 759 x184 + 103 x185 + 320 x186 + 763 x187 + 253 x188 + 349 x189 + 759 x190 + 757 x191 + 249 x192 + 56 x193 + 974 x194 + 692 x195 + 420 x196 + 929 x197 + 286 x198 + 502 x199 + 400 x200 + 246 x201 + 658 x202 + 25 x203 + 923 x204 + 210 x205 + 628 x206 + 552 x207 + 883 x208 + 724 x209 + 487 x210 + 135 x211 + 2 x212 + 877 x213 + 614 x214 + 257 x215 + 109 x216 + 188 x217 + 124 x218 + 543 x219 + 575 x220 + 165 x221 + 158 x222 + 596 x223 + 691 x224 + 746 x225 + 406 x226 + 815 x227 + 889 x228 + 551 x229 + 761 x230 + 329 x231 + 848 x232 + 700 x233 + 203 x234 + 416 x235 + 830 x236 + 399 x237 + 593 x238 + 930 x239 + 756 x240 + 672 x241 + 400 x242 + 422 x243 + 462 x244 + 161 x245 + 813 x246 + 80 x247 + 833 x248 + 414 x249 + 948 x250 <= 63882.500000000000000
Bounds
 0 <= x1 <= 1
 0 <= x2 <= 1
 0 <= x3 <= 1
 0 <= x4 <= 1
 0 <= x5 <= 1
 0 <= x6 <= 1
 0 <= x7 <= 1
 0 <= x8 <= 1
 0 <= x9 <= 1
 0 <= x10 <= 1
 0 <= x11 <= 1
 0 <= x12 <= 1
 0 <= x13 <= 1
 0 <= x14 <= 1
 0 <= x15 <= 1
 0 <= x16 <= 1
 0 <= x17 <= 1
 0 <= x18 <= 1
 0 <= x19 <= 1
 0 <= x20 <= 1
 0 <= x21 <= 1
 0 <= x22 <= 1
 0 <= x23 <= 1
 0 <= x24 <= 1
 0 <= x25 <= 1
 0 <= x26 <= 1
 0 <= x27 <= 1
 0 <= x28 <= 1
 0 <= x29 <= 1
 0 <= x30 <= 1
 0 <= x31 <= 1
 0 <= x32 <= 1
 0 <= x33 <= 1
 0 <= x34 <= 1
 0 <= x35 <= 1
 0 <= x36 <= 1
 0 <= x37 <= 1
 0 <= x38 <= 1
 0 <= x39 <= 1
 0 <= x40 <= 1
 0 <= x41 <= 1
 0 <= x42 <= 1
 0 <= x43 <= 1
 0 <= x44 <= 1
 0 <= x45 <= 1
 0 <= x46 <= 1
 0 <= x47 <= 1
 0 <= x48 <= 1
 0 <= x49 <= 1
 0 <= x50 <= 1
 0 <= x51 <= 1
 0 <= x52 <= 1
 0 <= x53 <= 1
 0 <= x54 <= 1
 0 <= x55 <= 1
 0 <= x56 <= 1
 0 <= x57 <= 1
 0 <= x58 <= 1
 0 <= x59 <= 1
 0 <= x60 <= 1
 0 <= x61 <= 1
 0 <= x62 <= 1
 0 <= x63 <= 1
 0 <= x64 <= 1
 0 <= x65 <= 1
 0 <= x66 <= 1
 0 <= x67 <= 1
 0 <= x68 <= 1
 0 <= x69 <= 1
 0 <= x70 <= 1
 0 <= x71 <= 1
 0 <= x72 <= 1
 0 <= x73 <= 1
 0 <= x74 <= 1
 0 <= x75 <= 1
 0 <= x76 <= 1
 0 <= x77 <= 1
 0 <= x78 <= 1
 0 <= x79 <= 1
 0 <= x80 <= 1
 0 <= x81 <= 1
 0 <= x82 <= 1
 0 <= x83 <= 1
 0 <= x84 <= 1
 0 <= x85 <= 1
 0 <= x86 <= 1
 0 <= x87 <= 1
 0 <= x88 <= 1
 0 <= x89 <= 1
 0 <= x90 <= 1
 0 <= x91 <= 1
 0 <= x92 <= 1
 0 <= x93 <= 1
 0 <= x94 <= 1
 0 <= x95 <= 1
 0 <= x96 <= 1
 0 <= x97 <= 1
 0 <= x98 <= 1
 0 <= x99 <= 1
 0 <= x100 <= 1
 0 <= x101 <= 1
 0 <= x102 <= 1
 0 <= x103 <= 1
 0 <= x104 <= 1
 0 <= x105 <= 1
 0 <= x106 <= 1
 0 <= x107 <= 1
 0 <= x108 <= 1
 0 <= x109 <= 1
 0 <= x110 <= 1
 0 <= x111 <= 1
 0 <= x112 <= 1
 0 <= x113 <= 1
 0 <= x114 <= 1
 0 <= x115 <= 1
 0 <= x116 <= 1
 0 <= x117 <= 1
 0 <= x118 <= 1
 0 <= x119 <= 1
 0 <= x120 <= 1
 0 <= x121 <= 1
 0 <= x122 <= 1
 0 <= x123 <= 1
 0 <= x124 <= 1
 0 <= x125 <= 1
 0 <= x126 <= 1
 0 <= x127 <= 1
 0 <= x128 <= 1
 0 <= x129 <= 1
 0 <= x130 <= 1
 0 <= x131 <= 1
 0 <= x132 <= 1
 0 <= x133 <= 1
 0 <= x134 <= 1
 0 <= x135 <= 1
 0 <= x136 <= 1
 0 <= x137 <= 1
 0 <= x138 <= 1
 0 <= x139 <= 1
 0 <= x140 <= 1
 0 <= x141 <= 1
 0 <= x142 <= 1
 0 <= x143 <= 1
 0 <= x144 <= 1
 0 <= x145 <= 1
 0 <= x146 <= 1
 0 <= x147 <= 1
 0 <= x148 <= 1
 0 <= x149 <= 1
 0 <= x150 <= 1
 0 <= x151 <= 1
 0 <= x152 <= 1
 0 <= x153 <= 1
 0 <= x154 <= 1
 0 <= x155 <= 1
 0 <= x156 <= 1
 0 <= x157 <= 1
 0 <= x158 <= 1
 0 <= x159 <= 1
 0 <= x160 <= 1
 0 <= x161 <= 1
 0 <= x162 <= 1
 0 <= x163 <= 1
 0 <= x164 <= 1
 0 <= x165 <= 1
 0 <= x166 <= 1
 0 <= x167 <= 1
 0 <= x168 <= 1
 0 <= x169 <= 1
 0 <= x170 <= 1
 0 <= x171 <= 1
 0 <= x172 <= 1
 0 <= x173 <= 1
 0 <= x174 <= 1
 0 <= x175 <= 1
 0 <= x176 <= 1
 0 <= x177 <= 1
 0 <= x178 <= 1
 0 <= x179 <= 1
 0 <= x180 <= 1
 0 <= x181 <= 1
 0 <= x182 <= 1
 0 <= x183 <= 1
 0 <= x184 <= 1
 0 <= x185 <= 1
 0 <= x186 <= 1
 0 <= x187 <= 1
 0 <= x188 <= 1
 0 <= x189 <= 1
 0 <= x190 <= 1
 0 <= x191 <= 1
 0 <= x192 <= 1
 0 <= x193 <= 1
 0 <= x194 <= 1
 0 <= x195 <= 1
 0 <= x196 <= 1
 0 <= x197 <= 1
 0 <= x198 <= 1
 0 <= x199 <= 1
 0 <= x200 <= 1
 0 <= x201 <= 1
 0 <= x202 <= 1
 0 <= x203 <= 1
 0 <= x204 <= 1
 0 <= x205 <= 1
 0 <= x206 <= 1
 0 <= x207 <= 1
 0 <= x208 <= 1
 0 <= x209 <= 1
 0 <= x210 <= 1
 0 <= x211 <= 1
 0 <= x212 <= 1
 0 <= x213 <= 1
 0 <= x214 <= 1
 0 <= x215 <= 1
 0 <= x216 <= 1
 0 <= x217 <= 1
 0 <= x218 <= 1
 0 <= x219 <= 1
 0 <= x220 <= 1
 0 <= x221 <= 1
 0 <= x222 <= 1
 0 <= x223 <= 1
 0 <= x224 <= 1
 0 <= x225 <= 1
 0 <= x226 <= 1
 0 <= x227 <= 1
 0 <= x228 <= 1
 0 <= x229 <= 1
 0 <= x230 <= 1
 0 <= x231 <= 1
 0 <= x232 <= 1
 0 <= x233 <= 1
 0 <= x234 <= 1
 0 <= x235 <= 1
 0 <= x236 <= 1
 0 <= x237 <= 1
 0 <= x238 <= 1
 0 <= x239 <= 1
 0 <= x240 <= 1
 0 <= x241 <= 1
 0 <= x242 <= 1
 0 <= x243 <= 1
 0 <= x244 <= 1
 0 <= x245 <= 1
 0 <= x246 <= 1
 0 <= x247 <= 1
 0 <= x248 <= 1
 0 <= x249 <= 1
 0 <= x250 <= 1
Binaries
 x1 x2 x3 x4 x5 x6 x7 x8 x9 x10 x11 x12 x13 x14 x15 x16 x17 x18 x19 x20 x21 x22 x23 x24 x25 x26 x27 x28 x29 x30 x31 x32 x33 x34 x35 x36 x37 x38 x39 x40 x41 x42 x43 x44 x45 x46 x47 x48 x49 x50 x51 x52 x53 x54 x55 x56 x57 x58 x59 x60 x61 x62 x63 x64 x65 x66 x67 x68 x69 x70 x71 x72 x73 x74 x75 x76 x77 x78 x79 x80 x81 x82 x83 x84 x85 x86 x87 x88 x89 x90 x91 x92 x93 x94 x95 x96 x97 x98 x99 x100 x101 x102 x103 x104 x105 x106 x107 x108 x109 x110 x111 x112 x113 x114 x115 x116 x117 x118 x119 x120 x121 x122 x123 x124 x125 x126 x127 x128 x129 x130 x131 x132 x133 x134 x135 x136 x137 x138 x139 x140 x141 x142 x143 x144 x145 x146 x147 x148 x149 x150 x151 x152 x153 x154 x155 x156 x157 x158 x159 x160 x161 x162 x163 x164 x165 x166 x167 x168 x169 x170 x171 x172 x173 x174 x175 x176 x177 x178 x179 x180 x181 x182 x183 x184 x185 x186 x187 x188 x189 x190 x191 x192 x193 x194 x195 x196 x197 x198 x199 x200 x201 x202 x203 x204 x205 x206 x207 x208 x209 x210 x211 x212 x213 x214 x215 x216 x217 x218 x219 x220 x221 x222 x223 x224 x225 x226 x227 x228 x229 x230 x231 x232 x233 x234 x235 x236 x237 x238 x239 x240 x241 x242 x243 x244 x245 x246 x247 x248 x249 x250
End